p edge 288 3732
v 1 293
v 2 207
v 3 233
v 4 340
v 5 477
v 6 510
v 7 392
v 8 630
v 9 318
v 10 326
v 11 452
v 12 520
v 13 384
v 14 263
v 15 312
v 16 271
v 17 363
v 18 564
v 19 373
v 20 610
v 21 329
v 22 427
v 23 448
v 24 363
v 25 344
v 26 219
v 27 299
v 28 688
v 29 694
v 30 557
v 31 268
v 32 661
v 33 266
v 34 210
v 35 645
v 36 445
v 37 277
v 38 458
v 39 390
v 40 500
v 41 320
v 42 447
v 43 487
v 44 687
v 45 503
v 46 247
v 47 356
v 48 594
v 49 391
v 50 383
v 51 689
v 52 588
v 53 562
v 54 696
v 55 351
v 56 640
v 57 333
v 58 527
v 59 240
v 60 492
v 61 604
v 62 528
v 63 335
v 64 415
v 65 479
v 66 266
v 67 446
v 68 679
v 69 203
v 70 505
v 71 536
v 72 549
v 73 453
v 74 291
v 75 204
v 76 506
v 77 693
v 78 645
v 79 552
v 80 363
v 81 539
v 82 402
v 83 249
v 84 443
v 85 262
v 86 311
v 87 505
v 88 626
v 89 625
v 90 504
v 91 322
v 92 530
v 93 385
v 94 523
v 95 503
v 96 365
v 97 701
v 98 429
v 99 703
v 100 427
v 101 683
v 102 397
v 103 651
v 104 520
v 105 644
v 106 538
v 107 394
v 108 444
v 109 487
v 110 324
v 111 621
v 112 309
v 113 460
v 114 242
v 115 271
v 116 464
v 117 560
v 118 631
v 119 553
v 120 261
v 121 303
v 122 530
v 123 315
v 124 699
v 125 325
v 126 368
v 127 206
v 128 460
v 129 563
v 130 528
v 131 433
v 132 661
v 133 373
v 134 636
v 135 644
v 136 416
v 137 416
v 138 547
v 139 321
v 140 388
v 141 270
v 142 207
v 143 232
v 144 350
v 145 303
v 146 627
v 147 237
v 148 251
v 149 555
v 150 472
v 151 582
v 152 496
v 153 223
v 154 413
v 155 307
v 156 659
v 157 539
v 158 456
v 159 692
v 160 427
v 161 265
v 162 563
v 163 466
v 164 673
v 165 496
v 166 396
v 167 552
v 168 533
v 169 434
v 170 572
v 171 310
v 172 286
v 173 280
v 174 682
v 175 481
v 176 226
v 177 418
v 178 422
v 179 485
v 180 681
v 181 566
v 182 242
v 183 420
v 184 702
v 185 495
v 186 640
v 187 487
v 188 367
v 189 235
v 190 212
v 191 201
v 192 662
v 193 617
v 194 481
v 195 359
v 196 636
v 197 479
v 198 470
v 199 511
v 200 252
v 201 238
v 202 568
v 203 364
v 204 651
v 205 342
v 206 496
v 207 684
v 208 334
v 209 353
v 210 210
v 211 665
v 212 462
v 213 431
v 214 495
v 215 215
v 216 338
v 217 583
v 218 495
v 219 475
v 220 521
v 221 539
v 222 383
v 223 684
v 224 505
v 225 635
v 226 552
v 227 303
v 228 301
v 229 216
v 230 296
v 231 448
v 232 239
v 233 471
v 234 516
v 235 460
v 236 441
v 237 685
v 238 599
v 239 491
v 240 453
v 241 541
v 242 563
v 243 683
v 244 620
v 245 555
v 246 498
v 247 250
v 248 595
v 249 345
v 250 689
v 251 593
v 252 396
v 253 521
v 254 642
v 255 262
v 256 670
v 257 298
v 258 677
v 259 674
v 260 670
v 261 418
v 262 321
v 263 391
v 264 614
v 265 432
v 266 580
v 267 485
v 268 402
v 269 273
v 270 421
v 271 534
v 272 321
v 273 452
v 274 232
v 275 520
v 276 407
v 277 400
v 278 636
v 279 509
v 280 702
v 281 253
v 282 377
v 283 387
v 284 271
v 285 435
v 286 238
v 287 454
v 288 418
e 1 2
e 1 3
e 1 4
e 1 5
e 1 6
e 1 7
e 1 8
e 1 9
e 1 10
e 1 11
e 1 12
e 1 14
e 1 29
e 1 41
e 1 54
e 1 69
e 1 116
e 1 145
e 1 191
e 1 222
e 1 275
e 2 3
e 2 4
e 2 5
e 2 6
e 2 7
e 2 8
e 2 9
e 2 10
e 2 11
e 2 12
e 2 30
e 2 55
e 2 70
e 2 117
e 2 130
e 2 146
e 2 158
e 2 192
e 2 205
e 2 251
e 2 266
e 3 4
e 3 5
e 3 6
e 3 7
e 3 8
e 3 9
e 3 10
e 3 11
e 3 12
e 3 42
e 3 56
e 3 71
e 3 80
e 3 131
e 3 147
e 3 159
e 3 176
e 3 193
e 3 206
e 3 223
e 3 236
e 3 267
e 4 5
e 4 6
e 4 7
e 4 8
e 4 9
e 4 10
e 4 11
e 4 12
e 4 15
e 4 57
e 4 72
e 4 81
e 4 88
e 4 101
e 4 132
e 4 148
e 4 177
e 4 194
e 4 207
e 4 224
e 4 237
e 4 252
e 4 276
e 5 6
e 5 7
e 5 8
e 5 9
e 5 10
e 5 11
e 5 12
e 5 16
e 5 43
e 5 58
e 5 73
e 5 82
e 5 89
e 5 133
e 5 149
e 5 160
e 5 208
e 5 225
e 5 238
e 5 253
e 5 277
e 6 7
e 6 8
e 6 9
e 6 10
e 6 11
e 6 12
e 6 19
e 6 32
e 6 60
e 6 83
e 6 90
e 6 104
e 6 120
e 6 136
e 6 151
e 6 163
e 6 180
e 6 211
e 6 255
e 7 8
e 7 9
e 7 10
e 7 11
e 7 12
e 7 33
e 7 61
e 7 91
e 7 105
e 7 121
e 7 137
e 7 164
e 7 181
e 7 196
e 7 212
e 7 269
e 7 280
e 8 9
e 8 10
e 8 11
e 8 12
e 8 20
e 8 34
e 8 45
e 8 84
e 8 92
e 8 106
e 8 165
e 8 197
e 8 213
e 8 241
e 8 256
e 8 281
e 9 10
e 9 11
e 9 12
e 9 22
e 9 47
e 9 76
e 9 108
e 9 124
e 9 139
e 9 167
e 9 200
e 9 228
e 9 244
e 9 259
e 9 284
e 10 11
e 10 12
e 10 51
e 10 65
e 10 77
e 10 112
e 10 128
e 10 142
e 10 154
e 10 171
e 10 187
e 10 202
e 10 273
e 10 286
e 11 12
e 11 26
e 11 37
e 11 66
e 11 86
e 11 97
e 11 113
e 11 155
e 11 172
e 11 219
e 11 232
e 11 247
e 11 262
e 12 39
e 12 53
e 12 87
e 12 99
e 12 144
e 12 157
e 12 174
e 12 189
e 12 203
e 12 221
e 12 234
e 12 249
e 12 264
e 12 288
e 13 14
e 13 15
e 13 16
e 13 17
e 13 18
e 13 19
e 13 20
e 13 21
e 13 22
e 13 23
e 13 24
e 13 25
e 13 26
e 13 27
e 13 28
e 13 40
e 13 68
e 13 79
e 13 100
e 13 115
e 13 129
e 13 175
e 13 190
e 13 204
e 13 235
e 13 250
e 13 265
e 14 15
e 14 16
e 14 17
e 14 18
e 14 19
e 14 20
e 14 21
e 14 22
e 14 23
e 14 24
e 14 25
e 14 26
e 14 27
e 14 29
e 14 41
e 14 54
e 14 69
e 14 116
e 14 145
e 14 191
e 14 222
e 14 275
e 15 16
e 15 17
e 15 18
e 15 19
e 15 20
e 15 21
e 15 22
e 15 23
e 15 24
e 15 25
e 15 26
e 15 27
e 15 57
e 15 72
e 15 81
e 15 88
e 15 101
e 15 132
e 15 148
e 15 177
e 15 194
e 15 207
e 15 224
e 15 237
e 15 252
e 15 276
e 16 17
e 16 18
e 16 19
e 16 20
e 16 21
e 16 22
e 16 23
e 16 24
e 16 25
e 16 26
e 16 27
e 16 43
e 16 58
e 16 73
e 16 82
e 16 89
e 16 133
e 16 149
e 16 160
e 16 208
e 16 225
e 16 238
e 16 253
e 16 277
e 17 18
e 17 19
e 17 20
e 17 21
e 17 22
e 17 23
e 17 24
e 17 25
e 17 26
e 17 27
e 17 44
e 17 102
e 17 118
e 17 134
e 17 161
e 17 178
e 17 195
e 17 209
e 17 239
e 17 268
e 17 278
e 18 19
e 18 20
e 18 21
e 18 22
e 18 23
e 18 24
e 18 25
e 18 26
e 18 27
e 18 31
e 18 59
e 18 74
e 18 103
e 18 119
e 18 135
e 18 150
e 18 162
e 18 179
e 18 210
e 18 240
e 18 254
e 18 279
e 19 20
e 19 21
e 19 22
e 19 23
e 19 24
e 19 25
e 19 26
e 19 27
e 19 32
e 19 60
e 19 83
e 19 90
e 19 104
e 19 120
e 19 136
e 19 151
e 19 163
e 19 180
e 19 211
e 19 255
e 20 21
e 20 22
e 20 23
e 20 24
e 20 25
e 20 26
e 20 27
e 20 34
e 20 45
e 20 84
e 20 92
e 20 106
e 20 165
e 20 197
e 20 213
e 20 241
e 20 256
e 20 281
e 21 22
e 21 23
e 21 24
e 21 25
e 21 26
e 21 27
e 21 46
e 21 62
e 21 93
e 21 107
e 21 122
e 21 152
e 21 166
e 21 182
e 21 198
e 21 214
e 21 226
e 21 242
e 21 257
e 21 270
e 21 282
e 22 23
e 22 24
e 22 25
e 22 26
e 22 27
e 22 47
e 22 76
e 22 108
e 22 124
e 22 139
e 22 167
e 22 200
e 22 228
e 22 244
e 22 259
e 22 284
e 23 24
e 23 25
e 23 26
e 23 27
e 23 48
e 23 95
e 23 109
e 23 125
e 23 140
e 23 168
e 23 184
e 23 216
e 23 229
e 23 260
e 23 272
e 24 25
e 24 26
e 24 27
e 24 49
e 24 64
e 24 110
e 24 126
e 24 153
e 24 169
e 24 185
e 24 217
e 24 230
e 24 245
e 24 261
e 24 285
e 25 26
e 25 27
e 25 36
e 25 50
e 25 85
e 25 96
e 25 111
e 25 127
e 25 141
e 25 170
e 25 186
e 25 201
e 25 218
e 25 231
e 25 246
e 26 27
e 26 37
e 26 66
e 26 86
e 26 97
e 26 113
e 26 155
e 26 172
e 26 219
e 26 232
e 26 247
e 26 262
e 27 38
e 27 52
e 27 67
e 27 78
e 27 98
e 27 114
e 27 143
e 27 156
e 27 173
e 27 188
e 27 220
e 27 233
e 27 248
e 27 263
e 27 274
e 27 287
e 28 29
e 28 30
e 28 31
e 28 32
e 28 33
e 28 34
e 28 35
e 28 36
e 28 37
e 28 38
e 28 39
e 28 40
e 28 68
e 28 79
e 28 100
e 28 115
e 28 129
e 28 175
e 28 190
e 28 204
e 28 235
e 28 250
e 28 265
e 29 30
e 29 31
e 29 32
e 29 33
e 29 34
e 29 35
e 29 36
e 29 37
e 29 38
e 29 39
e 29 41
e 29 54
e 29 69
e 29 116
e 29 145
e 29 191
e 29 222
e 29 275
e 30 31
e 30 32
e 30 33
e 30 34
e 30 35
e 30 36
e 30 37
e 30 38
e 30 39
e 30 55
e 30 70
e 30 117
e 30 130
e 30 146
e 30 158
e 30 192
e 30 205
e 30 251
e 30 266
e 31 32
e 31 33
e 31 34
e 31 35
e 31 36
e 31 37
e 31 38
e 31 39
e 31 59
e 31 74
e 31 103
e 31 119
e 31 135
e 31 150
e 31 162
e 31 179
e 31 210
e 31 240
e 31 254
e 31 279
e 32 33
e 32 34
e 32 35
e 32 36
e 32 37
e 32 38
e 32 39
e 32 60
e 32 83
e 32 90
e 32 104
e 32 120
e 32 136
e 32 151
e 32 163
e 32 180
e 32 211
e 32 255
e 33 34
e 33 35
e 33 36
e 33 37
e 33 38
e 33 39
e 33 61
e 33 91
e 33 105
e 33 121
e 33 137
e 33 164
e 33 181
e 33 196
e 33 212
e 33 269
e 33 280
e 34 35
e 34 36
e 34 37
e 34 38
e 34 39
e 34 45
e 34 84
e 34 92
e 34 106
e 34 165
e 34 197
e 34 213
e 34 241
e 34 256
e 34 281
e 35 36
e 35 37
e 35 38
e 35 39
e 35 63
e 35 75
e 35 94
e 35 123
e 35 138
e 35 183
e 35 199
e 35 215
e 35 227
e 35 243
e 35 258
e 35 271
e 35 283
e 36 37
e 36 38
e 36 39
e 36 50
e 36 85
e 36 96
e 36 111
e 36 127
e 36 141
e 36 170
e 36 186
e 36 201
e 36 218
e 36 231
e 36 246
e 37 38
e 37 39
e 37 66
e 37 86
e 37 97
e 37 113
e 37 155
e 37 172
e 37 219
e 37 232
e 37 247
e 37 262
e 38 39
e 38 52
e 38 67
e 38 78
e 38 98
e 38 114
e 38 143
e 38 156
e 38 173
e 38 188
e 38 220
e 38 233
e 38 248
e 38 263
e 38 274
e 38 287
e 39 53
e 39 87
e 39 99
e 39 144
e 39 157
e 39 174
e 39 189
e 39 203
e 39 221
e 39 234
e 39 249
e 39 264
e 39 288
e 40 41
e 40 42
e 40 43
e 40 44
e 40 45
e 40 46
e 40 47
e 40 48
e 40 49
e 40 50
e 40 51
e 40 52
e 40 53
e 40 68
e 40 79
e 40 100
e 40 115
e 40 129
e 40 175
e 40 190
e 40 204
e 40 235
e 40 250
e 40 265
e 41 42
e 41 43
e 41 44
e 41 45
e 41 46
e 41 47
e 41 48
e 41 49
e 41 50
e 41 51
e 41 52
e 41 53
e 41 54
e 41 69
e 41 116
e 41 145
e 41 191
e 41 222
e 41 275
e 42 43
e 42 44
e 42 45
e 42 46
e 42 47
e 42 48
e 42 49
e 42 50
e 42 51
e 42 52
e 42 53
e 42 56
e 42 71
e 42 80
e 42 131
e 42 147
e 42 159
e 42 176
e 42 193
e 42 206
e 42 223
e 42 236
e 42 267
e 43 44
e 43 45
e 43 46
e 43 47
e 43 48
e 43 49
e 43 50
e 43 51
e 43 52
e 43 53
e 43 58
e 43 73
e 43 82
e 43 89
e 43 133
e 43 149
e 43 160
e 43 208
e 43 225
e 43 238
e 43 253
e 43 277
e 44 45
e 44 46
e 44 47
e 44 48
e 44 49
e 44 50
e 44 51
e 44 52
e 44 53
e 44 102
e 44 118
e 44 134
e 44 161
e 44 178
e 44 195
e 44 209
e 44 239
e 44 268
e 44 278
e 45 46
e 45 47
e 45 48
e 45 49
e 45 50
e 45 51
e 45 52
e 45 53
e 45 84
e 45 92
e 45 106
e 45 165
e 45 197
e 45 213
e 45 241
e 45 256
e 45 281
e 46 47
e 46 48
e 46 49
e 46 50
e 46 51
e 46 52
e 46 53
e 46 62
e 46 93
e 46 107
e 46 122
e 46 152
e 46 166
e 46 182
e 46 198
e 46 214
e 46 226
e 46 242
e 46 257
e 46 270
e 46 282
e 47 48
e 47 49
e 47 50
e 47 51
e 47 52
e 47 53
e 47 76
e 47 108
e 47 124
e 47 139
e 47 167
e 47 200
e 47 228
e 47 244
e 47 259
e 47 284
e 48 49
e 48 50
e 48 51
e 48 52
e 48 53
e 48 95
e 48 109
e 48 125
e 48 140
e 48 168
e 48 184
e 48 216
e 48 229
e 48 260
e 48 272
e 49 50
e 49 51
e 49 52
e 49 53
e 49 64
e 49 110
e 49 126
e 49 153
e 49 169
e 49 185
e 49 217
e 49 230
e 49 245
e 49 261
e 49 285
e 50 51
e 50 52
e 50 53
e 50 85
e 50 96
e 50 111
e 50 127
e 50 141
e 50 170
e 50 186
e 50 201
e 50 218
e 50 231
e 50 246
e 51 52
e 51 53
e 51 65
e 51 77
e 51 112
e 51 128
e 51 142
e 51 154
e 51 171
e 51 187
e 51 202
e 51 273
e 51 286
e 52 53
e 52 67
e 52 78
e 52 98
e 52 114
e 52 143
e 52 156
e 52 173
e 52 188
e 52 220
e 52 233
e 52 248
e 52 263
e 52 274
e 52 287
e 53 87
e 53 99
e 53 144
e 53 157
e 53 174
e 53 189
e 53 203
e 53 221
e 53 234
e 53 249
e 53 264
e 53 288
e 54 55
e 54 56
e 54 57
e 54 58
e 54 59
e 54 60
e 54 61
e 54 62
e 54 63
e 54 64
e 54 65
e 54 66
e 54 67
e 54 69
e 54 116
e 54 145
e 54 191
e 54 222
e 54 275
e 55 56
e 55 57
e 55 58
e 55 59
e 55 60
e 55 61
e 55 62
e 55 63
e 55 64
e 55 65
e 55 66
e 55 67
e 55 70
e 55 117
e 55 130
e 55 146
e 55 158
e 55 192
e 55 205
e 55 251
e 55 266
e 56 57
e 56 58
e 56 59
e 56 60
e 56 61
e 56 62
e 56 63
e 56 64
e 56 65
e 56 66
e 56 67
e 56 71
e 56 80
e 56 131
e 56 147
e 56 159
e 56 176
e 56 193
e 56 206
e 56 223
e 56 236
e 56 267
e 57 58
e 57 59
e 57 60
e 57 61
e 57 62
e 57 63
e 57 64
e 57 65
e 57 66
e 57 67
e 57 72
e 57 81
e 57 88
e 57 101
e 57 132
e 57 148
e 57 177
e 57 194
e 57 207
e 57 224
e 57 237
e 57 252
e 57 276
e 58 59
e 58 60
e 58 61
e 58 62
e 58 63
e 58 64
e 58 65
e 58 66
e 58 67
e 58 73
e 58 82
e 58 89
e 58 133
e 58 149
e 58 160
e 58 208
e 58 225
e 58 238
e 58 253
e 58 277
e 59 60
e 59 61
e 59 62
e 59 63
e 59 64
e 59 65
e 59 66
e 59 67
e 59 74
e 59 103
e 59 119
e 59 135
e 59 150
e 59 162
e 59 179
e 59 210
e 59 240
e 59 254
e 59 279
e 60 61
e 60 62
e 60 63
e 60 64
e 60 65
e 60 66
e 60 67
e 60 83
e 60 90
e 60 104
e 60 120
e 60 136
e 60 151
e 60 163
e 60 180
e 60 211
e 60 255
e 61 62
e 61 63
e 61 64
e 61 65
e 61 66
e 61 67
e 61 91
e 61 105
e 61 121
e 61 137
e 61 164
e 61 181
e 61 196
e 61 212
e 61 269
e 61 280
e 62 63
e 62 64
e 62 65
e 62 66
e 62 67
e 62 93
e 62 107
e 62 122
e 62 152
e 62 166
e 62 182
e 62 198
e 62 214
e 62 226
e 62 242
e 62 257
e 62 270
e 62 282
e 63 64
e 63 65
e 63 66
e 63 67
e 63 75
e 63 94
e 63 123
e 63 138
e 63 183
e 63 199
e 63 215
e 63 227
e 63 243
e 63 258
e 63 271
e 63 283
e 64 65
e 64 66
e 64 67
e 64 110
e 64 126
e 64 153
e 64 169
e 64 185
e 64 217
e 64 230
e 64 245
e 64 261
e 64 285
e 65 66
e 65 67
e 65 77
e 65 112
e 65 128
e 65 142
e 65 154
e 65 171
e 65 187
e 65 202
e 65 273
e 65 286
e 66 67
e 66 86
e 66 97
e 66 113
e 66 155
e 66 172
e 66 219
e 66 232
e 66 247
e 66 262
e 67 78
e 67 98
e 67 114
e 67 143
e 67 156
e 67 173
e 67 188
e 67 220
e 67 233
e 67 248
e 67 263
e 67 274
e 67 287
e 68 69
e 68 70
e 68 71
e 68 72
e 68 73
e 68 74
e 68 75
e 68 76
e 68 77
e 68 78
e 68 79
e 68 100
e 68 115
e 68 129
e 68 175
e 68 190
e 68 204
e 68 235
e 68 250
e 68 265
e 69 70
e 69 71
e 69 72
e 69 73
e 69 74
e 69 75
e 69 76
e 69 77
e 69 78
e 69 116
e 69 145
e 69 191
e 69 222
e 69 275
e 70 71
e 70 72
e 70 73
e 70 74
e 70 75
e 70 76
e 70 77
e 70 78
e 70 117
e 70 130
e 70 146
e 70 158
e 70 192
e 70 205
e 70 251
e 70 266
e 71 72
e 71 73
e 71 74
e 71 75
e 71 76
e 71 77
e 71 78
e 71 80
e 71 131
e 71 147
e 71 159
e 71 176
e 71 193
e 71 206
e 71 223
e 71 236
e 71 267
e 72 73
e 72 74
e 72 75
e 72 76
e 72 77
e 72 78
e 72 81
e 72 88
e 72 101
e 72 132
e 72 148
e 72 177
e 72 194
e 72 207
e 72 224
e 72 237
e 72 252
e 72 276
e 73 74
e 73 75
e 73 76
e 73 77
e 73 78
e 73 82
e 73 89
e 73 133
e 73 149
e 73 160
e 73 208
e 73 225
e 73 238
e 73 253
e 73 277
e 74 75
e 74 76
e 74 77
e 74 78
e 74 103
e 74 119
e 74 135
e 74 150
e 74 162
e 74 179
e 74 210
e 74 240
e 74 254
e 74 279
e 75 76
e 75 77
e 75 78
e 75 94
e 75 123
e 75 138
e 75 183
e 75 199
e 75 215
e 75 227
e 75 243
e 75 258
e 75 271
e 75 283
e 76 77
e 76 78
e 76 108
e 76 124
e 76 139
e 76 167
e 76 200
e 76 228
e 76 244
e 76 259
e 76 284
e 77 78
e 77 112
e 77 128
e 77 142
e 77 154
e 77 171
e 77 187
e 77 202
e 77 273
e 77 286
e 78 98
e 78 114
e 78 143
e 78 156
e 78 173
e 78 188
e 78 220
e 78 233
e 78 248
e 78 263
e 78 274
e 78 287
e 79 80
e 79 81
e 79 82
e 79 83
e 79 84
e 79 85
e 79 86
e 79 87
e 79 100
e 79 115
e 79 129
e 79 175
e 79 190
e 79 204
e 79 235
e 79 250
e 79 265
e 80 81
e 80 82
e 80 83
e 80 84
e 80 85
e 80 86
e 80 87
e 80 131
e 80 147
e 80 159
e 80 176
e 80 193
e 80 206
e 80 223
e 80 236
e 80 267
e 81 82
e 81 83
e 81 84
e 81 85
e 81 86
e 81 87
e 81 88
e 81 101
e 81 132
e 81 148
e 81 177
e 81 194
e 81 207
e 81 224
e 81 237
e 81 252
e 81 276
e 82 83
e 82 84
e 82 85
e 82 86
e 82 87
e 82 89
e 82 133
e 82 149
e 82 160
e 82 208
e 82 225
e 82 238
e 82 253
e 82 277
e 83 84
e 83 85
e 83 86
e 83 87
e 83 90
e 83 104
e 83 120
e 83 136
e 83 151
e 83 163
e 83 180
e 83 211
e 83 255
e 84 85
e 84 86
e 84 87
e 84 92
e 84 106
e 84 165
e 84 197
e 84 213
e 84 241
e 84 256
e 84 281
e 85 86
e 85 87
e 85 96
e 85 111
e 85 127
e 85 141
e 85 170
e 85 186
e 85 201
e 85 218
e 85 231
e 85 246
e 86 87
e 86 97
e 86 113
e 86 155
e 86 172
e 86 219
e 86 232
e 86 247
e 86 262
e 87 99
e 87 144
e 87 157
e 87 174
e 87 189
e 87 203
e 87 221
e 87 234
e 87 249
e 87 264
e 87 288
e 88 89
e 88 90
e 88 91
e 88 92
e 88 93
e 88 94
e 88 95
e 88 96
e 88 97
e 88 98
e 88 99
e 88 101
e 88 132
e 88 148
e 88 177
e 88 194
e 88 207
e 88 224
e 88 237
e 88 252
e 88 276
e 89 90
e 89 91
e 89 92
e 89 93
e 89 94
e 89 95
e 89 96
e 89 97
e 89 98
e 89 99
e 89 133
e 89 149
e 89 160
e 89 208
e 89 225
e 89 238
e 89 253
e 89 277
e 90 91
e 90 92
e 90 93
e 90 94
e 90 95
e 90 96
e 90 97
e 90 98
e 90 99
e 90 104
e 90 120
e 90 136
e 90 151
e 90 163
e 90 180
e 90 211
e 90 255
e 91 92
e 91 93
e 91 94
e 91 95
e 91 96
e 91 97
e 91 98
e 91 99
e 91 105
e 91 121
e 91 137
e 91 164
e 91 181
e 91 196
e 91 212
e 91 269
e 91 280
e 92 93
e 92 94
e 92 95
e 92 96
e 92 97
e 92 98
e 92 99
e 92 106
e 92 165
e 92 197
e 92 213
e 92 241
e 92 256
e 92 281
e 93 94
e 93 95
e 93 96
e 93 97
e 93 98
e 93 99
e 93 107
e 93 122
e 93 152
e 93 166
e 93 182
e 93 198
e 93 214
e 93 226
e 93 242
e 93 257
e 93 270
e 93 282
e 94 95
e 94 96
e 94 97
e 94 98
e 94 99
e 94 123
e 94 138
e 94 183
e 94 199
e 94 215
e 94 227
e 94 243
e 94 258
e 94 271
e 94 283
e 95 96
e 95 97
e 95 98
e 95 99
e 95 109
e 95 125
e 95 140
e 95 168
e 95 184
e 95 216
e 95 229
e 95 260
e 95 272
e 96 97
e 96 98
e 96 99
e 96 111
e 96 127
e 96 141
e 96 170
e 96 186
e 96 201
e 96 218
e 96 231
e 96 246
e 97 98
e 97 99
e 97 113
e 97 155
e 97 172
e 97 219
e 97 232
e 97 247
e 97 262
e 98 99
e 98 114
e 98 143
e 98 156
e 98 173
e 98 188
e 98 220
e 98 233
e 98 248
e 98 263
e 98 274
e 98 287
e 99 144
e 99 157
e 99 174
e 99 189
e 99 203
e 99 221
e 99 234
e 99 249
e 99 264
e 99 288
e 100 101
e 100 102
e 100 103
e 100 104
e 100 105
e 100 106
e 100 107
e 100 108
e 100 109
e 100 110
e 100 111
e 100 112
e 100 113
e 100 114
e 100 115
e 100 129
e 100 175
e 100 190
e 100 204
e 100 235
e 100 250
e 100 265
e 101 102
e 101 103
e 101 104
e 101 105
e 101 106
e 101 107
e 101 108
e 101 109
e 101 110
e 101 111
e 101 112
e 101 113
e 101 114
e 101 132
e 101 148
e 101 177
e 101 194
e 101 207
e 101 224
e 101 237
e 101 252
e 101 276
e 102 103
e 102 104
e 102 105
e 102 106
e 102 107
e 102 108
e 102 109
e 102 110
e 102 111
e 102 112
e 102 113
e 102 114
e 102 118
e 102 134
e 102 161
e 102 178
e 102 195
e 102 209
e 102 239
e 102 268
e 102 278
e 103 104
e 103 105
e 103 106
e 103 107
e 103 108
e 103 109
e 103 110
e 103 111
e 103 112
e 103 113
e 103 114
e 103 119
e 103 135
e 103 150
e 103 162
e 103 179
e 103 210
e 103 240
e 103 254
e 103 279
e 104 105
e 104 106
e 104 107
e 104 108
e 104 109
e 104 110
e 104 111
e 104 112
e 104 113
e 104 114
e 104 120
e 104 136
e 104 151
e 104 163
e 104 180
e 104 211
e 104 255
e 105 106
e 105 107
e 105 108
e 105 109
e 105 110
e 105 111
e 105 112
e 105 113
e 105 114
e 105 121
e 105 137
e 105 164
e 105 181
e 105 196
e 105 212
e 105 269
e 105 280
e 106 107
e 106 108
e 106 109
e 106 110
e 106 111
e 106 112
e 106 113
e 106 114
e 106 165
e 106 197
e 106 213
e 106 241
e 106 256
e 106 281
e 107 108
e 107 109
e 107 110
e 107 111
e 107 112
e 107 113
e 107 114
e 107 122
e 107 152
e 107 166
e 107 182
e 107 198
e 107 214
e 107 226
e 107 242
e 107 257
e 107 270
e 107 282
e 108 109
e 108 110
e 108 111
e 108 112
e 108 113
e 108 114
e 108 124
e 108 139
e 108 167
e 108 200
e 108 228
e 108 244
e 108 259
e 108 284
e 109 110
e 109 111
e 109 112
e 109 113
e 109 114
e 109 125
e 109 140
e 109 168
e 109 184
e 109 216
e 109 229
e 109 260
e 109 272
e 110 111
e 110 112
e 110 113
e 110 114
e 110 126
e 110 153
e 110 169
e 110 185
e 110 217
e 110 230
e 110 245
e 110 261
e 110 285
e 111 112
e 111 113
e 111 114
e 111 127
e 111 141
e 111 170
e 111 186
e 111 201
e 111 218
e 111 231
e 111 246
e 112 113
e 112 114
e 112 128
e 112 142
e 112 154
e 112 171
e 112 187
e 112 202
e 112 273
e 112 286
e 113 114
e 113 155
e 113 172
e 113 219
e 113 232
e 113 247
e 113 262
e 114 143
e 114 156
e 114 173
e 114 188
e 114 220
e 114 233
e 114 248
e 114 263
e 114 274
e 114 287
e 115 116
e 115 117
e 115 118
e 115 119
e 115 120
e 115 121
e 115 122
e 115 123
e 115 124
e 115 125
e 115 126
e 115 127
e 115 128
e 115 129
e 115 175
e 115 190
e 115 204
e 115 235
e 115 250
e 115 265
e 116 117
e 116 118
e 116 119
e 116 120
e 116 121
e 116 122
e 116 123
e 116 124
e 116 125
e 116 126
e 116 127
e 116 128
e 116 145
e 116 191
e 116 222
e 116 275
e 117 118
e 117 119
e 117 120
e 117 121
e 117 122
e 117 123
e 117 124
e 117 125
e 117 126
e 117 127
e 117 128
e 117 130
e 117 146
e 117 158
e 117 192
e 117 205
e 117 251
e 117 266
e 118 119
e 118 120
e 118 121
e 118 122
e 118 123
e 118 124
e 118 125
e 118 126
e 118 127
e 118 128
e 118 134
e 118 161
e 118 178
e 118 195
e 118 209
e 118 239
e 118 268
e 118 278
e 119 120
e 119 121
e 119 122
e 119 123
e 119 124
e 119 125
e 119 126
e 119 127
e 119 128
e 119 135
e 119 150
e 119 162
e 119 179
e 119 210
e 119 240
e 119 254
e 119 279
e 120 121
e 120 122
e 120 123
e 120 124
e 120 125
e 120 126
e 120 127
e 120 128
e 120 136
e 120 151
e 120 163
e 120 180
e 120 211
e 120 255
e 121 122
e 121 123
e 121 124
e 121 125
e 121 126
e 121 127
e 121 128
e 121 137
e 121 164
e 121 181
e 121 196
e 121 212
e 121 269
e 121 280
e 122 123
e 122 124
e 122 125
e 122 126
e 122 127
e 122 128
e 122 152
e 122 166
e 122 182
e 122 198
e 122 214
e 122 226
e 122 242
e 122 257
e 122 270
e 122 282
e 123 124
e 123 125
e 123 126
e 123 127
e 123 128
e 123 138
e 123 183
e 123 199
e 123 215
e 123 227
e 123 243
e 123 258
e 123 271
e 123 283
e 124 125
e 124 126
e 124 127
e 124 128
e 124 139
e 124 167
e 124 200
e 124 228
e 124 244
e 124 259
e 124 284
e 125 126
e 125 127
e 125 128
e 125 140
e 125 168
e 125 184
e 125 216
e 125 229
e 125 260
e 125 272
e 126 127
e 126 128
e 126 153
e 126 169
e 126 185
e 126 217
e 126 230
e 126 245
e 126 261
e 126 285
e 127 128
e 127 141
e 127 170
e 127 186
e 127 201
e 127 218
e 127 231
e 127 246
e 128 142
e 128 154
e 128 171
e 128 187
e 128 202
e 128 273
e 128 286
e 129 130
e 129 131
e 129 132
e 129 133
e 129 134
e 129 135
e 129 136
e 129 137
e 129 138
e 129 139
e 129 140
e 129 141
e 129 142
e 129 143
e 129 144
e 129 175
e 129 190
e 129 204
e 129 235
e 129 250
e 129 265
e 130 131
e 130 132
e 130 133
e 130 134
e 130 135
e 130 136
e 130 137
e 130 138
e 130 139
e 130 140
e 130 141
e 130 142
e 130 143
e 130 144
e 130 146
e 130 158
e 130 192
e 130 205
e 130 251
e 130 266
e 131 132
e 131 133
e 131 134
e 131 135
e 131 136
e 131 137
e 131 138
e 131 139
e 131 140
e 131 141
e 131 142
e 131 143
e 131 144
e 131 147
e 131 159
e 131 176
e 131 193
e 131 206
e 131 223
e 131 236
e 131 267
e 132 133
e 132 134
e 132 135
e 132 136
e 132 137
e 132 138
e 132 139
e 132 140
e 132 141
e 132 142
e 132 143
e 132 144
e 132 148
e 132 177
e 132 194
e 132 207
e 132 224
e 132 237
e 132 252
e 132 276
e 133 134
e 133 135
e 133 136
e 133 137
e 133 138
e 133 139
e 133 140
e 133 141
e 133 142
e 133 143
e 133 144
e 133 149
e 133 160
e 133 208
e 133 225
e 133 238
e 133 253
e 133 277
e 134 135
e 134 136
e 134 137
e 134 138
e 134 139
e 134 140
e 134 141
e 134 142
e 134 143
e 134 144
e 134 161
e 134 178
e 134 195
e 134 209
e 134 239
e 134 268
e 134 278
e 135 136
e 135 137
e 135 138
e 135 139
e 135 140
e 135 141
e 135 142
e 135 143
e 135 144
e 135 150
e 135 162
e 135 179
e 135 210
e 135 240
e 135 254
e 135 279
e 136 137
e 136 138
e 136 139
e 136 140
e 136 141
e 136 142
e 136 143
e 136 144
e 136 151
e 136 163
e 136 180
e 136 211
e 136 255
e 137 138
e 137 139
e 137 140
e 137 141
e 137 142
e 137 143
e 137 144
e 137 164
e 137 181
e 137 196
e 137 212
e 137 269
e 137 280
e 138 139
e 138 140
e 138 141
e 138 142
e 138 143
e 138 144
e 138 183
e 138 199
e 138 215
e 138 227
e 138 243
e 138 258
e 138 271
e 138 283
e 139 140
e 139 141
e 139 142
e 139 143
e 139 144
e 139 167
e 139 200
e 139 228
e 139 244
e 139 259
e 139 284
e 140 141
e 140 142
e 140 143
e 140 144
e 140 168
e 140 184
e 140 216
e 140 229
e 140 260
e 140 272
e 141 142
e 141 143
e 141 144
e 141 170
e 141 186
e 141 201
e 141 218
e 141 231
e 141 246
e 142 143
e 142 144
e 142 154
e 142 171
e 142 187
e 142 202
e 142 273
e 142 286
e 143 144
e 143 156
e 143 173
e 143 188
e 143 220
e 143 233
e 143 248
e 143 263
e 143 274
e 143 287
e 144 157
e 144 174
e 144 189
e 144 203
e 144 221
e 144 234
e 144 249
e 144 264
e 144 288
e 145 146
e 145 147
e 145 148
e 145 149
e 145 150
e 145 151
e 145 152
e 145 153
e 145 154
e 145 155
e 145 156
e 145 157
e 145 191
e 145 222
e 145 275
e 146 147
e 146 148
e 146 149
e 146 150
e 146 151
e 146 152
e 146 153
e 146 154
e 146 155
e 146 156
e 146 157
e 146 158
e 146 192
e 146 205
e 146 251
e 146 266
e 147 148
e 147 149
e 147 150
e 147 151
e 147 152
e 147 153
e 147 154
e 147 155
e 147 156
e 147 157
e 147 159
e 147 176
e 147 193
e 147 206
e 147 223
e 147 236
e 147 267
e 148 149
e 148 150
e 148 151
e 148 152
e 148 153
e 148 154
e 148 155
e 148 156
e 148 157
e 148 177
e 148 194
e 148 207
e 148 224
e 148 237
e 148 252
e 148 276
e 149 150
e 149 151
e 149 152
e 149 153
e 149 154
e 149 155
e 149 156
e 149 157
e 149 160
e 149 208
e 149 225
e 149 238
e 149 253
e 149 277
e 150 151
e 150 152
e 150 153
e 150 154
e 150 155
e 150 156
e 150 157
e 150 162
e 150 179
e 150 210
e 150 240
e 150 254
e 150 279
e 151 152
e 151 153
e 151 154
e 151 155
e 151 156
e 151 157
e 151 163
e 151 180
e 151 211
e 151 255
e 152 153
e 152 154
e 152 155
e 152 156
e 152 157
e 152 166
e 152 182
e 152 198
e 152 214
e 152 226
e 152 242
e 152 257
e 152 270
e 152 282
e 153 154
e 153 155
e 153 156
e 153 157
e 153 169
e 153 185
e 153 217
e 153 230
e 153 245
e 153 261
e 153 285
e 154 155
e 154 156
e 154 157
e 154 171
e 154 187
e 154 202
e 154 273
e 154 286
e 155 156
e 155 157
e 155 172
e 155 219
e 155 232
e 155 247
e 155 262
e 156 157
e 156 173
e 156 188
e 156 220
e 156 233
e 156 248
e 156 263
e 156 274
e 156 287
e 157 174
e 157 189
e 157 203
e 157 221
e 157 234
e 157 249
e 157 264
e 157 288
e 158 159
e 158 160
e 158 161
e 158 162
e 158 163
e 158 164
e 158 165
e 158 166
e 158 167
e 158 168
e 158 169
e 158 170
e 158 171
e 158 172
e 158 173
e 158 174
e 158 192
e 158 205
e 158 251
e 158 266
e 159 160
e 159 161
e 159 162
e 159 163
e 159 164
e 159 165
e 159 166
e 159 167
e 159 168
e 159 169
e 159 170
e 159 171
e 159 172
e 159 173
e 159 174
e 159 176
e 159 193
e 159 206
e 159 223
e 159 236
e 159 267
e 160 161
e 160 162
e 160 163
e 160 164
e 160 165
e 160 166
e 160 167
e 160 168
e 160 169
e 160 170
e 160 171
e 160 172
e 160 173
e 160 174
e 160 208
e 160 225
e 160 238
e 160 253
e 160 277
e 161 162
e 161 163
e 161 164
e 161 165
e 161 166
e 161 167
e 161 168
e 161 169
e 161 170
e 161 171
e 161 172
e 161 173
e 161 174
e 161 178
e 161 195
e 161 209
e 161 239
e 161 268
e 161 278
e 162 163
e 162 164
e 162 165
e 162 166
e 162 167
e 162 168
e 162 169
e 162 170
e 162 171
e 162 172
e 162 173
e 162 174
e 162 179
e 162 210
e 162 240
e 162 254
e 162 279
e 163 164
e 163 165
e 163 166
e 163 167
e 163 168
e 163 169
e 163 170
e 163 171
e 163 172
e 163 173
e 163 174
e 163 180
e 163 211
e 163 255
e 164 165
e 164 166
e 164 167
e 164 168
e 164 169
e 164 170
e 164 171
e 164 172
e 164 173
e 164 174
e 164 181
e 164 196
e 164 212
e 164 269
e 164 280
e 165 166
e 165 167
e 165 168
e 165 169
e 165 170
e 165 171
e 165 172
e 165 173
e 165 174
e 165 197
e 165 213
e 165 241
e 165 256
e 165 281
e 166 167
e 166 168
e 166 169
e 166 170
e 166 171
e 166 172
e 166 173
e 166 174
e 166 182
e 166 198
e 166 214
e 166 226
e 166 242
e 166 257
e 166 270
e 166 282
e 167 168
e 167 169
e 167 170
e 167 171
e 167 172
e 167 173
e 167 174
e 167 200
e 167 228
e 167 244
e 167 259
e 167 284
e 168 169
e 168 170
e 168 171
e 168 172
e 168 173
e 168 174
e 168 184
e 168 216
e 168 229
e 168 260
e 168 272
e 169 170
e 169 171
e 169 172
e 169 173
e 169 174
e 169 185
e 169 217
e 169 230
e 169 245
e 169 261
e 169 285
e 170 171
e 170 172
e 170 173
e 170 174
e 170 186
e 170 201
e 170 218
e 170 231
e 170 246
e 171 172
e 171 173
e 171 174
e 171 187
e 171 202
e 171 273
e 171 286
e 172 173
e 172 174
e 172 219
e 172 232
e 172 247
e 172 262
e 173 174
e 173 188
e 173 220
e 173 233
e 173 248
e 173 263
e 173 274
e 173 287
e 174 189
e 174 203
e 174 221
e 174 234
e 174 249
e 174 264
e 174 288
e 175 176
e 175 177
e 175 178
e 175 179
e 175 180
e 175 181
e 175 182
e 175 183
e 175 184
e 175 185
e 175 186
e 175 187
e 175 188
e 175 189
e 175 190
e 175 204
e 175 235
e 175 250
e 175 265
e 176 177
e 176 178
e 176 179
e 176 180
e 176 181
e 176 182
e 176 183
e 176 184
e 176 185
e 176 186
e 176 187
e 176 188
e 176 189
e 176 193
e 176 206
e 176 223
e 176 236
e 176 267
e 177 178
e 177 179
e 177 180
e 177 181
e 177 182
e 177 183
e 177 184
e 177 185
e 177 186
e 177 187
e 177 188
e 177 189
e 177 194
e 177 207
e 177 224
e 177 237
e 177 252
e 177 276
e 178 179
e 178 180
e 178 181
e 178 182
e 178 183
e 178 184
e 178 185
e 178 186
e 178 187
e 178 188
e 178 189
e 178 195
e 178 209
e 178 239
e 178 268
e 178 278
e 179 180
e 179 181
e 179 182
e 179 183
e 179 184
e 179 185
e 179 186
e 179 187
e 179 188
e 179 189
e 179 210
e 179 240
e 179 254
e 179 279
e 180 181
e 180 182
e 180 183
e 180 184
e 180 185
e 180 186
e 180 187
e 180 188
e 180 189
e 180 211
e 180 255
e 181 182
e 181 183
e 181 184
e 181 185
e 181 186
e 181 187
e 181 188
e 181 189
e 181 196
e 181 212
e 181 269
e 181 280
e 182 183
e 182 184
e 182 185
e 182 186
e 182 187
e 182 188
e 182 189
e 182 198
e 182 214
e 182 226
e 182 242
e 182 257
e 182 270
e 182 282
e 183 184
e 183 185
e 183 186
e 183 187
e 183 188
e 183 189
e 183 199
e 183 215
e 183 227
e 183 243
e 183 258
e 183 271
e 183 283
e 184 185
e 184 186
e 184 187
e 184 188
e 184 189
e 184 216
e 184 229
e 184 260
e 184 272
e 185 186
e 185 187
e 185 188
e 185 189
e 185 217
e 185 230
e 185 245
e 185 261
e 185 285
e 186 187
e 186 188
e 186 189
e 186 201
e 186 218
e 186 231
e 186 246
e 187 188
e 187 189
e 187 202
e 187 273
e 187 286
e 188 189
e 188 220
e 188 233
e 188 248
e 188 263
e 188 274
e 188 287
e 189 203
e 189 221
e 189 234
e 189 249
e 189 264
e 189 288
e 190 191
e 190 192
e 190 193
e 190 194
e 190 195
e 190 196
e 190 197
e 190 198
e 190 199
e 190 200
e 190 201
e 190 202
e 190 203
e 190 204
e 190 235
e 190 250
e 190 265
e 191 192
e 191 193
e 191 194
e 191 195
e 191 196
e 191 197
e 191 198
e 191 199
e 191 200
e 191 201
e 191 202
e 191 203
e 191 222
e 191 275
e 192 193
e 192 194
e 192 195
e 192 196
e 192 197
e 192 198
e 192 199
e 192 200
e 192 201
e 192 202
e 192 203
e 192 205
e 192 251
e 192 266
e 193 194
e 193 195
e 193 196
e 193 197
e 193 198
e 193 199
e 193 200
e 193 201
e 193 202
e 193 203
e 193 206
e 193 223
e 193 236
e 193 267
e 194 195
e 194 196
e 194 197
e 194 198
e 194 199
e 194 200
e 194 201
e 194 202
e 194 203
e 194 207
e 194 224
e 194 237
e 194 252
e 194 276
e 195 196
e 195 197
e 195 198
e 195 199
e 195 200
e 195 201
e 195 202
e 195 203
e 195 209
e 195 239
e 195 268
e 195 278
e 196 197
e 196 198
e 196 199
e 196 200
e 196 201
e 196 202
e 196 203
e 196 212
e 196 269
e 196 280
e 197 198
e 197 199
e 197 200
e 197 201
e 197 202
e 197 203
e 197 213
e 197 241
e 197 256
e 197 281
e 198 199
e 198 200
e 198 201
e 198 202
e 198 203
e 198 214
e 198 226
e 198 242
e 198 257
e 198 270
e 198 282
e 199 200
e 199 201
e 199 202
e 199 203
e 199 215
e 199 227
e 199 243
e 199 258
e 199 271
e 199 283
e 200 201
e 200 202
e 200 203
e 200 228
e 200 244
e 200 259
e 200 284
e 201 202
e 201 203
e 201 218
e 201 231
e 201 246
e 202 203
e 202 273
e 202 286
e 203 221
e 203 234
e 203 249
e 203 264
e 203 288
e 204 205
e 204 206
e 204 207
e 204 208
e 204 209
e 204 210
e 204 211
e 204 212
e 204 213
e 204 214
e 204 215
e 204 216
e 204 217
e 204 218
e 204 219
e 204 220
e 204 221
e 204 235
e 204 250
e 204 265
e 205 206
e 205 207
e 205 208
e 205 209
e 205 210
e 205 211
e 205 212
e 205 213
e 205 214
e 205 215
e 205 216
e 205 217
e 205 218
e 205 219
e 205 220
e 205 221
e 205 251
e 205 266
e 206 207
e 206 208
e 206 209
e 206 210
e 206 211
e 206 212
e 206 213
e 206 214
e 206 215
e 206 216
e 206 217
e 206 218
e 206 219
e 206 220
e 206 221
e 206 223
e 206 236
e 206 267
e 207 208
e 207 209
e 207 210
e 207 211
e 207 212
e 207 213
e 207 214
e 207 215
e 207 216
e 207 217
e 207 218
e 207 219
e 207 220
e 207 221
e 207 224
e 207 237
e 207 252
e 207 276
e 208 209
e 208 210
e 208 211
e 208 212
e 208 213
e 208 214
e 208 215
e 208 216
e 208 217
e 208 218
e 208 219
e 208 220
e 208 221
e 208 225
e 208 238
e 208 253
e 208 277
e 209 210
e 209 211
e 209 212
e 209 213
e 209 214
e 209 215
e 209 216
e 209 217
e 209 218
e 209 219
e 209 220
e 209 221
e 209 239
e 209 268
e 209 278
e 210 211
e 210 212
e 210 213
e 210 214
e 210 215
e 210 216
e 210 217
e 210 218
e 210 219
e 210 220
e 210 221
e 210 240
e 210 254
e 210 279
e 211 212
e 211 213
e 211 214
e 211 215
e 211 216
e 211 217
e 211 218
e 211 219
e 211 220
e 211 221
e 211 255
e 212 213
e 212 214
e 212 215
e 212 216
e 212 217
e 212 218
e 212 219
e 212 220
e 212 221
e 212 269
e 212 280
e 213 214
e 213 215
e 213 216
e 213 217
e 213 218
e 213 219
e 213 220
e 213 221
e 213 241
e 213 256
e 213 281
e 214 215
e 214 216
e 214 217
e 214 218
e 214 219
e 214 220
e 214 221
e 214 226
e 214 242
e 214 257
e 214 270
e 214 282
e 215 216
e 215 217
e 215 218
e 215 219
e 215 220
e 215 221
e 215 227
e 215 243
e 215 258
e 215 271
e 215 283
e 216 217
e 216 218
e 216 219
e 216 220
e 216 221
e 216 229
e 216 260
e 216 272
e 217 218
e 217 219
e 217 220
e 217 221
e 217 230
e 217 245
e 217 261
e 217 285
e 218 219
e 218 220
e 218 221
e 218 231
e 218 246
e 219 220
e 219 221
e 219 232
e 219 247
e 219 262
e 220 221
e 220 233
e 220 248
e 220 263
e 220 274
e 220 287
e 221 234
e 221 249
e 221 264
e 221 288
e 222 223
e 222 224
e 222 225
e 222 226
e 222 227
e 222 228
e 222 229
e 222 230
e 222 231
e 222 232
e 222 233
e 222 234
e 222 275
e 223 224
e 223 225
e 223 226
e 223 227
e 223 228
e 223 229
e 223 230
e 223 231
e 223 232
e 223 233
e 223 234
e 223 236
e 223 267
e 224 225
e 224 226
e 224 227
e 224 228
e 224 229
e 224 230
e 224 231
e 224 232
e 224 233
e 224 234
e 224 237
e 224 252
e 224 276
e 225 226
e 225 227
e 225 228
e 225 229
e 225 230
e 225 231
e 225 232
e 225 233
e 225 234
e 225 238
e 225 253
e 225 277
e 226 227
e 226 228
e 226 229
e 226 230
e 226 231
e 226 232
e 226 233
e 226 234
e 226 242
e 226 257
e 226 270
e 226 282
e 227 228
e 227 229
e 227 230
e 227 231
e 227 232
e 227 233
e 227 234
e 227 243
e 227 258
e 227 271
e 227 283
e 228 229
e 228 230
e 228 231
e 228 232
e 228 233
e 228 234
e 228 244
e 228 259
e 228 284
e 229 230
e 229 231
e 229 232
e 229 233
e 229 234
e 229 260
e 229 272
e 230 231
e 230 232
e 230 233
e 230 234
e 230 245
e 230 261
e 230 285
e 231 232
e 231 233
e 231 234
e 231 246
e 232 233
e 232 234
e 232 247
e 232 262
e 233 234
e 233 248
e 233 263
e 233 274
e 233 287
e 234 249
e 234 264
e 234 288
e 235 236
e 235 237
e 235 238
e 235 239
e 235 240
e 235 241
e 235 242
e 235 243
e 235 244
e 235 245
e 235 246
e 235 247
e 235 248
e 235 249
e 235 250
e 235 265
e 236 237
e 236 238
e 236 239
e 236 240
e 236 241
e 236 242
e 236 243
e 236 244
e 236 245
e 236 246
e 236 247
e 236 248
e 236 249
e 236 267
e 237 238
e 237 239
e 237 240
e 237 241
e 237 242
e 237 243
e 237 244
e 237 245
e 237 246
e 237 247
e 237 248
e 237 249
e 237 252
e 237 276
e 238 239
e 238 240
e 238 241
e 238 242
e 238 243
e 238 244
e 238 245
e 238 246
e 238 247
e 238 248
e 238 249
e 238 253
e 238 277
e 239 240
e 239 241
e 239 242
e 239 243
e 239 244
e 239 245
e 239 246
e 239 247
e 239 248
e 239 249
e 239 268
e 239 278
e 240 241
e 240 242
e 240 243
e 240 244
e 240 245
e 240 246
e 240 247
e 240 248
e 240 249
e 240 254
e 240 279
e 241 242
e 241 243
e 241 244
e 241 245
e 241 246
e 241 247
e 241 248
e 241 249
e 241 256
e 241 281
e 242 243
e 242 244
e 242 245
e 242 246
e 242 247
e 242 248
e 242 249
e 242 257
e 242 270
e 242 282
e 243 244
e 243 245
e 243 246
e 243 247
e 243 248
e 243 249
e 243 258
e 243 271
e 243 283
e 244 245
e 244 246
e 244 247
e 244 248
e 244 249
e 244 259
e 244 284
e 245 246
e 245 247
e 245 248
e 245 249
e 245 261
e 245 285
e 246 247
e 246 248
e 246 249
e 247 248
e 247 249
e 247 262
e 248 249
e 248 263
e 248 274
e 248 287
e 249 264
e 249 288
e 250 251
e 250 252
e 250 253
e 250 254
e 250 255
e 250 256
e 250 257
e 250 258
e 250 259
e 250 260
e 250 261
e 250 262
e 250 263
e 250 264
e 250 265
e 251 252
e 251 253
e 251 254
e 251 255
e 251 256
e 251 257
e 251 258
e 251 259
e 251 260
e 251 261
e 251 262
e 251 263
e 251 264
e 251 266
e 252 253
e 252 254
e 252 255
e 252 256
e 252 257
e 252 258
e 252 259
e 252 260
e 252 261
e 252 262
e 252 263
e 252 264
e 252 276
e 253 254
e 253 255
e 253 256
e 253 257
e 253 258
e 253 259
e 253 260
e 253 261
e 253 262
e 253 263
e 253 264
e 253 277
e 254 255
e 254 256
e 254 257
e 254 258
e 254 259
e 254 260
e 254 261
e 254 262
e 254 263
e 254 264
e 254 279
e 255 256
e 255 257
e 255 258
e 255 259
e 255 260
e 255 261
e 255 262
e 255 263
e 255 264
e 256 257
e 256 258
e 256 259
e 256 260
e 256 261
e 256 262
e 256 263
e 256 264
e 256 281
e 257 258
e 257 259
e 257 260
e 257 261
e 257 262
e 257 263
e 257 264
e 257 270
e 257 282
e 258 259
e 258 260
e 258 261
e 258 262
e 258 263
e 258 264
e 258 271
e 258 283
e 259 260
e 259 261
e 259 262
e 259 263
e 259 264
e 259 284
e 260 261
e 260 262
e 260 263
e 260 264
e 260 272
e 261 262
e 261 263
e 261 264
e 261 285
e 262 263
e 262 264
e 263 264
e 263 274
e 263 287
e 264 288
e 265 266
e 265 267
e 265 268
e 265 269
e 265 270
e 265 271
e 265 272
e 265 273
e 265 274
e 266 267
e 266 268
e 266 269
e 266 270
e 266 271
e 266 272
e 266 273
e 266 274
e 267 268
e 267 269
e 267 270
e 267 271
e 267 272
e 267 273
e 267 274
e 268 269
e 268 270
e 268 271
e 268 272
e 268 273
e 268 274
e 268 278
e 269 270
e 269 271
e 269 272
e 269 273
e 269 274
e 269 280
e 270 271
e 270 272
e 270 273
e 270 274
e 270 282
e 271 272
e 271 273
e 271 274
e 271 283
e 272 273
e 272 274
e 273 274
e 273 286
e 274 287
e 275 276
e 275 277
e 275 278
e 275 279
e 275 280
e 275 281
e 275 282
e 275 283
e 275 284
e 275 285
e 275 286
e 275 287
e 275 288
e 276 277
e 276 278
e 276 279
e 276 280
e 276 281
e 276 282
e 276 283
e 276 284
e 276 285
e 276 286
e 276 287
e 276 288
e 277 278
e 277 279
e 277 280
e 277 281
e 277 282
e 277 283
e 277 284
e 277 285
e 277 286
e 277 287
e 277 288
e 278 279
e 278 280
e 278 281
e 278 282
e 278 283
e 278 284
e 278 285
e 278 286
e 278 287
e 278 288
e 279 280
e 279 281
e 279 282
e 279 283
e 279 284
e 279 285
e 279 286
e 279 287
e 279 288
e 280 281
e 280 282
e 280 283
e 280 284
e 280 285
e 280 286
e 280 287
e 280 288
e 281 282
e 281 283
e 281 284
e 281 285
e 281 286
e 281 287
e 281 288
e 282 283
e 282 284
e 282 285
e 282 286
e 282 287
e 282 288
e 283 284
e 283 285
e 283 286
e 283 287
e 283 288
e 284 285
e 284 286
e 284 287
e 284 288
e 285 286
e 285 287
e 285 288
e 286 287
e 286 288
e 287 288
